unsat
( c1000
  c1001
  c1002
  c1005
  c1006
  c1010
  c1011
  c1012
  c1015
  c1016
  c1017
  c1019
  c1020
  c1021
  c1024
  c1025
  c1029
  c1030
  c1031
  c1034
  c1035
  c1036
  c1038
  c1039
  c1040
  c1043
  c1044
  c1048
  c1049
  c1050
  c1053
  c1054
  c1055
  c1057
  c1058
  c1059
  c106
  c1062
  c1063
  c1067
  c1068
  c1069
  c107
  c1072
  c1073
  c1074
  c1076
  c1077
  c1078
  c108
  c1081
  c1082
  c1086
  c1087
  c109
  c1094
  c1095
  c1096
  c1099
  c110
  c1100
  c1101
  c1103
  c1104
  c1105
  c1108
  c1109
  c111
  c1114
  c1115
  c1117
  c1118
  c1119
  c112
  c1122
  c1123
  c1124
  c1126
  c1127
  c1128
  c1131
  c1132
  c1136
  c1137
  c1138
  c1141
  c1142
  c1143
  c1145
  c1146
  c1147
  c1150
  c1151
  c1155
  c1156
  c1157
  c1160
  c1161
  c1162
  c1164
  c1165
  c1166
  c1169
  c1170
  c1174
  c1175
  c1176
  c1179
  c1180
  c1181
  c1183
  c1184
  c1185
  c1188
  c1189
  c1193
  c1194
  c1201
  c1202
  c1203
  c1206
  c1207
  c1208
  c1210
  c1211
  c1212
  c1215
  c1216
  c1220
  c1221
  c1222
  c1225
  c1226
  c1227
  c1229
  c1230
  c1231
  c1234
  c1235
  c1240
  c1241
  c1243
  c1244
  c1245
  c1248
  c1249
  c125
  c1250
  c1252
  c1253
  c1254
  c1257
  c1258
  c126
  c1262
  c1263
  c1264
  c1267
  c1268
  c1269
  c127
  c1271
  c1272
  c1273
  c1276
  c1277
  c128
  c1281
  c1282
  c1283
  c1286
  c1287
  c1288
  c129
  c1290
  c1291
  c1292
  c1295
  c1296
  c130
  c1300
  c1301
  c1308
  c1309
  c1310
  c1313
  c1314
  c1315
  c1317
  c1318
  c1319
  c1322
  c1323
  c1327
  c1328
  c1329
  c1332
  c1333
  c1334
  c1336
  c1337
  c1338
  c1341
  c1342
  c1346
  c1347
  c1348
  c1351
  c1352
  c1353
  c1355
  c1356
  c1357
  c1360
  c1361
  c1366
  c1367
  c1369
  c137
  c1370
  c1371
  c1374
  c1375
  c1376
  c1378
  c1379
  c138
  c1380
  c1383
  c1384
  c1388
  c1389
  c139
  c1390
  c1393
  c1394
  c1395
  c1397
  c1398
  c1399
  c140
  c1402
  c1403
  c1407
  c1408
  c141
  c1415
  c1416
  c1417
  c142
  c1420
  c1421
  c1422
  c1424
  c1425
  c1426
  c1429
  c143
  c1430
  c1434
  c1435
  c1436
  c1439
  c144
  c1440
  c1441
  c1443
  c1444
  c1445
  c1448
  c1449
  c145
  c1453
  c1454
  c1455
  c1458
  c1459
  c146
  c1460
  c1462
  c1463
  c1464
  c1467
  c1468
  c147
  c1472
  c1473
  c1474
  c1477
  c1478
  c1479
  c148
  c1481
  c1482
  c1483
  c1486
  c1487
  c1492
  c1493
  c1495
  c1496
  c1497
  c1500
  c1501
  c1502
  c1504
  c1505
  c1506
  c1509
  c1510
  c1514
  c1515
  c1522
  c1523
  c1524
  c1527
  c1528
  c1529
  c1531
  c1532
  c1533
  c1536
  c1537
  c1541
  c1542
  c1543
  c1546
  c1547
  c1548
  c155
  c1550
  c1551
  c1552
  c1555
  c1556
  c156
  c1560
  c1561
  c1562
  c1565
  c1566
  c1567
  c1569
  c157
  c1570
  c1571
  c1574
  c1575
  c1579
  c158
  c1580
  c1581
  c1584
  c1585
  c1586
  c1588
  c1589
  c159
  c1590
  c1593
  c1594
  c1598
  c1599
  c160
  c1600
  c1603
  c1604
  c1605
  c1607
  c1608
  c1609
  c161
  c1612
  c1613
  c1618
  c1619
  c162
  c1621
  c1622
  c1629
  c163
  c1630
  c1632
  c1633
  c1635
  c1636
  c1638
  c1639
  c164
  c1666
  c1667
  c1668
  c1669
  c1670
  c1675
  c1680
  c1686
  c1688
  c1689
  c1692
  c1693
  c1696
  c1697
  c1700
  c1701
  c1704
  c1705
  c1708
  c1709
  c171
  c1712
  c1713
  c1714
  c1717
  c1718
  c1719
  c172
  c1722
  c1723
  c1724
  c1727
  c1728
  c1729
  c173
  c1732
  c1733
  c1734
  c1737
  c1738
  c1739
  c174
  c1742
  c1743
  c1744
  c1747
  c1748
  c1749
  c175
  c1752
  c1753
  c1754
  c1757
  c1758
  c1759
  c176
  c1762
  c1763
  c1764
  c1769
  c177
  c1773
  c178
  c179
  c1799
  c180
  c1800
  c1801
  c1802
  c1803
  c1804
  c1805
  c1806
  c1807
  c1808
  c1809
  c181
  c1810
  c1811
  c1812
  c1813
  c1814
  c1815
  c1816
  c1817
  c182
  c1821
  c1824
  c1825
  c1826
  c1827
  c1828
  c1829
  c183
  c1830
  c1831
  c1832
  c1833
  c1834
  c1835
  c1836
  c184
  c185
  c1854
  c1858
  c186
  c1862
  c1866
  c187
  c1870
  c1874
  c1878
  c188
  c1881
  c1882
  c1883
  c1886
  c1887
  c1888
  c1891
  c1892
  c1893
  c1896
  c1897
  c1898
  c190
  c1901
  c1902
  c1903
  c1906
  c1907
  c1908
  c191
  c1912
  c1916
  c1920
  c1921
  c1922
  c1923
  c1924
  c1925
  c1926
  c1927
  c1928
  c1929
  c1930
  c1931
  c1932
  c1933
  c1934
  c1935
  c1936
  c1937
  c1938
  c1939
  c1940
  c1941
  c1970
  c1976
  c1979
  c1982
  c1985
  c1988
  c1991
  c1992
  c1993
  c1994
  c1995
  c1999
  c2
  c2005
  c2008
  c2011
  c2014
  c2017
  c2018
  c2019
  c2020
  c2022
  c2025
  c2028
  c2034
  c2037
  c2040
  c2043
  c2044
  c2045
  c2047
  c2048
  c205
  c2051
  c2054
  c2057
  c206
  c2063
  c2066
  c2069
  c207
  c2070
  c2072
  c2073
  c2074
  c2077
  c208
  c2080
  c2083
  c2086
  c209
  c2092
  c2095
  c2097
  c2098
  c2099
  c210
  c2100
  c2103
  c2106
  c2109
  c211
  c2112
  c2115
  c212
  c2122
  c2123
  c2124
  c2125
  c2126
  c213
  c2130
  c2133
  c2136
  c2139
  c214
  c2140
  c2143
  c2146
  c2149
  c215
  c2152
  c2153
  c2154
  c2157
  c216
  c2160
  c2163
  c2166
  c2169
  c217
  c2170
  c2171
  c2172
  c2175
  c2178
  c218
  c2181
  c2184
  c2187
  c219
  c2190
  c2191
  c2192
  c2193
  c2194
  c2197
  c220
  c2200
  c2203
  c2206
  c2209
  c221
  c2212
  c2216
  c2220
  c2221
  c2222
  c2223
  c2224
  c2225
  c2226
  c2227
  c2228
  c2229
  c223
  c2230
  c2231
  c2232
  c2233
  c2234
  c2235
  c2236
  c2237
  c2238
  c2239
  c224
  c2240
  c2241
  c2242
  c2243
  c2244
  c2245
  c2246
  c2247
  c2248
  c2249
  c225
  c2250
  c227
  c2270
  c2273
  c2274
  c2277
  c2278
  c228
  c2281
  c2282
  c2285
  c2286
  c2289
  c229
  c2290
  c2293
  c2294
  c2298
  c2299
  c2303
  c2304
  c2308
  c2309
  c231
  c2313
  c2314
  c2318
  c2319
  c232
  c2323
  c2324
  c2329
  c233
  c2330
  c2331
  c2337
  c2338
  c2339
  c2345
  c2346
  c2347
  c235
  c2353
  c2354
  c2355
  c2357
  c2358
  c236
  c2360
  c2361
  c2363
  c2364
  c2366
  c2367
  c237
  c2370
  c2372
  c2374
  c2376
  c2379
  c2380
  c2385
  c2386
  c2387
  c2388
  c2389
  c239
  c2390
  c2391
  c2392
  c2393
  c2394
  c2395
  c2396
  c2397
  c2398
  c2399
  c240
  c2400
  c2401
  c2402
  c2403
  c2404
  c2405
  c2406
  c2407
  c241
  c2425
  c2427
  c243
  c2432
  c2433
  c2436
  c2437
  c244
  c2440
  c2441
  c2444
  c2445
  c2448
  c2449
  c245
  c2452
  c2453
  c2454
  c2455
  c2456
  c2459
  c2460
  c2461
  c2468
  c2469
  c247
  c2472
  c2473
  c2476
  c2477
  c248
  c2480
  c2481
  c2484
  c2485
  c2486
  c2487
  c2489
  c2491
  c2492
  c2493
  c2496
  c2497
  c2504
  c2505
  c2508
  c2509
  c2512
  c2513
  c2516
  c2517
  c2518
  c252
  c2520
  c2521
  c2523
  c2524
  c2525
  c2528
  c2529
  c253
  c2532
  c2533
  c2540
  c2541
  c2544
  c2545
  c2548
  c2549
  c2551
  c2552
  c2553
  c2555
  c2556
  c2557
  c2560
  c2561
  c2564
  c2565
  c2568
  c2569
  c257
  c2576
  c2577
  c258
  c2580
  c2582
  c2583
  c2584
  c2585
  c2587
  c2588
  c2589
  c2592
  c2593
  c2596
  c2597
  c2599
  c2600
  c2601
  c2604
  c2605
  c2613
  c2614
  c2615
  c2616
  c2617
  c262
  c2625
  c2626
  c263
  c2630
  c2634
  c2635
  c2638
  c2639
  c2640
  c2644
  c2645
  c2649
  c2653
  c2657
  c2658
  c2659
  c2663
  c2664
  c2668
  c267
  c2672
  c2673
  c2676
  c2677
  c2678
  c268
  c2682
  c2683
  c2687
  c2691
  c2692
  c2695
  c2696
  c2697
  c2701
  c2702
  c2706
  c2710
  c2711
  c2714
  c2715
  c2716
  c2719
  c272
  c2720
  c2721
  c2722
  c2723
  c2728
  c2729
  c273
  c2743
  c2751
  c2752
  c2756
  c2760
  c2761
  c2764
  c2765
  c2766
  c277
  c2770
  c2771
  c2775
  c2779
  c278
  c2780
  c2783
  c2784
  c2785
  c2789
  c279
  c2790
  c2794
  c2798
  c2799
  c2802
  c2803
  c2804
  c2808
  c2809
  c281
  c2813
  c2817
  c2818
  c282
  c2821
  c2822
  c2823
  c2826
  c2827
  c2828
  c2829
  c283
  c2831
  c2835
  c2836
  c2845
  c2848
  c285
  c2850
  c2854
  c2855
  c286
  c2869
  c287
  c2877
  c2878
  c2882
  c2886
  c2887
  c289
  c2890
  c2891
  c2892
  c2896
  c2897
  c290
  c2901
  c2905
  c2906
  c2909
  c291
  c2910
  c2911
  c2915
  c2916
  c2920
  c2924
  c2925
  c2928
  c2929
  c293
  c2930
  c2933
  c2934
  c2935
  c2937
  c2938
  c294
  c2942
  c2943
  c295
  c2957
  c2961
  c2962
  c2976
  c2980
  c2981
  c2995
  c3003
  c3004
  c3008
  c3012
  c3013
  c3016
  c3017
  c3018
  c3022
  c3023
  c3027
  c3031
  c3032
  c3035
  c3036
  c3037
  c3040
  c3041
  c3043
  c3044
  c3045
  c3049
  c3050
  c3064
  c3068
  c3069
  c3083
  c3087
  c3088
  c3102
  c3106
  c3107
  c3121
  c3129
  c3130
  c3134
  c3143
  c3144
  c3147
  c3149
  c3150
  c3151
  c3152
  c3156
  c3157
  c3171
  c3175
  c3176
  c318
  c319
  c3190
  c3194
  c3195
  c320
  c3209
  c321
  c3213
  c3214
  c322
  c3228
  c323
  c3232
  c3233
  c324
  c3241
  c3242
  c3245
  c3247
  c325
  c3255
  c3256
  c3257
  c3258
  c3259
  c326
  c3262
  c3265
  c3268
  c327
  c3271
  c3272
  c3273
  c3274
  c3275
  c3276
  c3277
  c3278
  c3279
  c328
  c3280
  c3281
  c3282
  c3283
  c3284
  c3285
  c3286
  c3287
  c3288
  c3289
  c329
  c3290
  c3291
  c3292
  c3293
  c3294
  c3295
  c3296
  c331
  c3318
  c332
  c3321
  c3322
  c3325
  c3326
  c3329
  c333
  c3330
  c3333
  c3334
  c3337
  c3338
  c334
  c3341
  c3342
  c3346
  c3347
  c335
  c3351
  c3352
  c3356
  c3357
  c336
  c3361
  c3362
  c3366
  c3367
  c3371
  c3372
  c3376
  c3377
  c338
  c3381
  c3382
  c3386
  c3387
  c3388
  c3389
  c3391
  c3392
  c3394
  c3395
  c3397
  c3398
  c3399
  c34
  c3401
  c3402
  c3403
  c3404
  c3405
  c3406
  c3407
  c3408
  c3409
  c341
  c3410
  c3411
  c3412
  c3413
  c3414
  c3415
  c3416
  c3417
  c3418
  c3419
  c342
  c3420
  c3421
  c3422
  c3423
  c3424
  c3425
  c344
  c345
  c3454
  c3455
  c3456
  c3457
  c3458
  c3459
  c3460
  c3461
  c3464
  c3465
  c3468
  c3469
  c347
  c3472
  c3473
  c3476
  c3477
  c348
  c3480
  c3481
  c3482
  c3483
  c3485
  c3486
  c3487
  c3488
  c3489
  c3490
  c3491
  c3492
  c3494
  c3495
  c3496
  c3497
  c3498
  c350
  c3500
  c3501
  c3502
  c3505
  c3506
  c3507
  c3508
  c3509
  c351
  c3512
  c3513
  c3514
  c3515
  c3516
  c3519
  c3520
  c3521
  c3522
  c3523
  c3526
  c3527
  c3528
  c3529
  c353
  c3530
  c3533
  c3534
  c3535
  c3536
  c3537
  c3538
  c3539
  c354
  c3540
  c3541
  c3542
  c3543
  c3544
  c3545
  c3546
  c3548
  c3549
  c3550
  c3554
  c3555
  c3556
  c3557
  c3558
  c3559
  c356
  c3560
  c3561
  c3562
  c3563
  c3564
  c3565
  c3566
  c3567
  c3568
  c3569
  c357
  c3571
  c3573
  c3574
  c3575
  c3576
  c3577
  c3578
  c3579
  c3580
  c3581
  c3582
  c3583
  c3584
  c3585
  c3586
  c3588
  c3589
  c3592
  c3593
  c3594
  c3595
  c3597
  c3598
  c3599
  c36
  c3600
  c3601
  c3602
  c3603
  c3604
  c3605
  c3608
  c3609
  c3611
  c3612
  c3613
  c3614
  c3615
  c3616
  c3617
  c3618
  c3619
  c3620
  c3621
  c3623
  c3624
  c3627
  c3628
  c3629
  c3630
  c3631
  c3632
  c3633
  c3634
  c3635
  c3636
  c3637
  c3638
  c3639
  c364
  c3640
  c3641
  c3644
  c3645
  c3646
  c3647
  c3648
  c3649
  c365
  c3650
  c3651
  c3652
  c3653
  c3654
  c3655
  c3656
  c3657
  c3659
  c3660
  c3661
  c3662
  c3663
  c3664
  c3665
  c3666
  c3667
  c3668
  c3669
  c367
  c3671
  c3672
  c3673
  c3677
  c3679
  c3680
  c3681
  c3682
  c3683
  c3684
  c3685
  c3686
  c3687
  c3688
  c3689
  c3693
  c3694
  c3695
  c3696
  c3697
  c3698
  c3699
  c37
  c370
  c3700
  c3701
  c3702
  c3703
  c3704
  c3705
  c3706
  c3707
  c3708
  c371
  c3719
  c3720
  c3722
  c3723
  c3724
  c3725
  c3726
  c3727
  c3728
  c373
  c3730
  c3731
  c3732
  c3733
  c3734
  c3735
  c3737
  c3738
  c3739
  c374
  c3742
  c3743
  c3744
  c3745
  c3746
  c3747
  c3748
  c3749
  c3751
  c3752
  c3753
  c3754
  c3756
  c3757
  c3758
  c3759
  c376
  c3761
  c3762
  c3763
  c3764
  c3765
  c3766
  c3767
  c3768
  c3769
  c377
  c3770
  c3771
  c3772
  c3773
  c3774
  c3776
  c3778
  c3779
  c3780
  c3781
  c3782
  c3783
  c3784
  c3785
  c3786
  c3787
  c3788
  c3789
  c379
  c3790
  c3792
  c3793
  c3794
  c3797
  c3798
  c3799
  c380
  c3800
  c3802
  c3803
  c3804
  c3805
  c3806
  c3807
  c3808
  c3809
  c3810
  c3813
  c3814
  c3816
  c3817
  c3818
  c3819
  c382
  c3820
  c3821
  c3822
  c3823
  c3824
  c3825
  c3827
  c3828
  c3829
  c383
  c3832
  c3833
  c3834
  c3835
  c3836
  c3837
  c3838
  c3839
  c3840
  c3841
  c3842
  c3843
  c3844
  c3845
  c3846
  c3849
  c3850
  c3851
  c3852
  c3853
  c3854
  c3855
  c3856
  c3857
  c3858
  c3859
  c3860
  c3861
  c3862
  c3865
  c3866
  c3867
  c3868
  c3869
  c3870
  c3871
  c3872
  c3873
  c3875
  c3876
  c3877
  c3878
  c3882
  c3884
  c3885
  c3886
  c3887
  c3888
  c3889
  c3890
  c3891
  c3892
  c3893
  c3894
  c3898
  c3899
  c39
  c390
  c3900
  c3901
  c3902
  c3903
  c3904
  c3905
  c3906
  c3907
  c3908
  c3909
  c391
  c3910
  c3911
  c3912
  c3913
  c3924
  c3925
  c3927
  c3928
  c3929
  c393
  c3930
  c3931
  c3932
  c3934
  c3935
  c3936
  c3937
  c3938
  c3939
  c394
  c3940
  c3942
  c3943
  c3944
  c3945
  c3946
  c3947
  c3949
  c3950
  c3951
  c3953
  c3954
  c3955
  c3956
  c3957
  c3959
  c396
  c3960
  c3961
  c3962
  c3963
  c3964
  c3965
  c3966
  c3967
  c3968
  c3969
  c3970
  c3971
  c3972
  c3974
  c3977
  c3978
  c3979
  c3980
  c3981
  c3982
  c3983
  c3984
  c3985
  c3986
  c3987
  c3989
  c399
  c3990
  c3991
  c3992
  c3995
  c3996
  c3997
  c3998
  c40
  c400
  c4000
  c4001
  c4002
  c4003
  c4004
  c4005
  c4006
  c4007
  c4008
  c4011
  c4012
  c4014
  c4015
  c4016
  c4017
  c4018
  c4019
  c402
  c4020
  c4021
  c4022
  c4024
  c4025
  c4026
  c4027
  c403
  c4030
  c4031
  c4032
  c4033
  c4034
  c4035
  c4036
  c4037
  c4038
  c4039
  c4040
  c4041
  c4042
  c4043
  c4044
  c4047
  c4048
  c4049
  c405
  c4050
  c4051
  c4052
  c4053
  c4054
  c4055
  c4056
  c4057
  c4058
  c4059
  c406
  c4060
  c4063
  c4064
  c4065
  c4066
  c4067
  c4068
  c4069
  c4070
  c4072
  c4073
  c4074
  c4075
  c4076
  c408
  c4080
  c4082
  c4083
  c4084
  c4085
  c4086
  c4087
  c4088
  c4089
  c409
  c4090
  c4091
  c4092
  c4096
  c4097
  c4098
  c4099
  c4100
  c4101
  c4102
  c4103
  c4104
  c4105
  c4106
  c4107
  c4108
  c4109
  c4110
  c4111
  c4122
  c4123
  c4125
  c4126
  c4127
  c4128
  c4129
  c4131
  c4132
  c4133
  c4134
  c4135
  c4136
  c4137
  c4138
  c4140
  c4141
  c4142
  c4143
  c4144
  c4145
  c4147
  c4148
  c4150
  c4151
  c4152
  c4153
  c4154
  c4155
  c4156
  c4157
  c4158
  c4159
  c416
  c4160
  c4161
  c4162
  c4163
  c4164
  c4165
  c4166
  c4167
  c4168
  c4169
  c417
  c4170
  c4172
  c4175
  c4176
  c4177
  c4178
  c4179
  c4180
  c4181
  c4182
  c4183
  c4184
  c4186
  c4187
  c4188
  c4189
  c419
  c4190
  c4193
  c4194
  c4195
  c4196
  c4198
  c4199
  c42
  c420
  c4200
  c4201
  c4202
  c4203
  c4204
  c4205
  c4206
  c4209
  c4210
  c4212
  c4213
  c4214
  c4215
  c4216
  c4217
  c4218
  c4219
  c422
  c4221
  c4222
  c4223
  c4224
  c4225
  c4228
  c4229
  c423
  c4230
  c4231
  c4232
  c4233
  c4234
  c4235
  c4236
  c4237
  c4238
  c4239
  c4240
  c4241
  c4242
  c4245
  c4246
  c4247
  c4248
  c4249
  c425
  c4250
  c4251
  c4252
  c4253
  c4254
  c4255
  c4256
  c4257
  c4258
  c4261
  c4262
  c4263
  c4264
  c4265
  c4266
  c4267
  c4269
  c4270
  c4271
  c4272
  c4273
  c4274
  c4278
  c428
  c4280
  c4281
  c4282
  c4283
  c4284
  c4285
  c4286
  c4287
  c4288
  c4289
  c429
  c4290
  c4294
  c4295
  c4296
  c4297
  c4298
  c4299
  c43
  c4300
  c4301
  c4302
  c4303
  c4304
  c4305
  c4306
  c4307
  c4308
  c4309
  c431
  c432
  c4320
  c4321
  c4323
  c4324
  c4325
  c4326
  c4328
  c4329
  c4330
  c4331
  c4332
  c4333
  c4334
  c4335
  c4336
  c4338
  c4339
  c434
  c4340
  c4341
  c4342
  c4343
  c4345
  c4347
  c4348
  c4349
  c435
  c4350
  c4351
  c4352
  c4353
  c4355
  c4356
  c4357
  c4358
  c4359
  c4360
  c4361
  c4362
  c4363
  c4364
  c4365
  c4366
  c4367
  c4368
  c4370
  c4372
  c4373
  c4374
  c4375
  c4376
  c4377
  c4378
  c4379
  c4380
  c4381
  c4383
  c4384
  c4385
  c4386
  c4387
  c4388
  c4391
  c4392
  c4393
  c4394
  c4396
  c4397
  c4398
  c4399
  c44
  c4400
  c4401
  c4402
  c4403
  c4404
  c4407
  c4408
  c4410
  c4411
  c4412
  c4413
  c4414
  c4415
  c4416
  c4418
  c4419
  c442
  c4420
  c4421
  c4422
  c4423
  c4426
  c4427
  c4428
  c4429
  c443
  c4430
  c4431
  c4432
  c4433
  c4434
  c4435
  c4436
  c4437
  c4438
  c4439
  c4440
  c4443
  c4444
  c4445
  c4446
  c4447
  c4448
  c4449
  c445
  c4450
  c4451
  c4452
  c4453
  c4454
  c4455
  c4456
  c4458
  c4459
  c446
  c4460
  c4461
  c4462
  c4463
  c4464
  c4466
  c4467
  c4468
  c4469
  c4470
  c4471
  c4472
  c4476
  c4478
  c4479
  c448
  c4480
  c4481
  c4482
  c4483
  c4484
  c4485
  c4486
  c4487
  c4488
  c449
  c4492
  c4493
  c4494
  c4495
  c4496
  c4497
  c4498
  c4499
  c45
  c4500
  c4501
  c4502
  c4503
  c4504
  c4505
  c4506
  c4507
  c451
  c4518
  c4519
  c452
  c4521
  c4522
  c4523
  c4525
  c4526
  c4527
  c4528
  c4529
  c4530
  c4531
  c4532
  c4533
  c4534
  c4536
  c4537
  c4538
  c4539
  c454
  c4540
  c4541
  c4544
  c4545
  c4546
  c4547
  c4548
  c4549
  c4550
  c4551
  c4553
  c4554
  c4555
  c4556
  c4557
  c4558
  c4559
  c4560
  c4561
  c4562
  c4563
  c4564
  c4565
  c4566
  c4568
  c457
  c4571
  c4572
  c4573
  c4574
  c4575
  c4576
  c4577
  c4578
  c458
  c4580
  c4581
  c4582
  c4583
  c4584
  c4585
  c4586
  c4589
  c4590
  c4591
  c4592
  c4594
  c4595
  c4596
  c4597
  c4598
  c4599
  c46
  c460
  c4600
  c4601
  c4602
  c4605
  c4606
  c4608
  c4609
  c461
  c4610
  c4611
  c4612
  c4613
  c4615
  c4616
  c4617
  c4618
  c4619
  c4620
  c4621
  c4624
  c4625
  c4626
  c4627
  c4628
  c4629
  c4630
  c4631
  c4632
  c4633
  c4634
  c4635
  c4636
  c4637
  c4638
  c4641
  c4642
  c4643
  c4644
  c4645
  c4646
  c4647
  c4648
  c4649
  c4650
  c4651
  c4652
  c4653
  c4654
  c4657
  c4658
  c4659
  c4660
  c4661
  c4663
  c4664
  c4665
  c4666
  c4667
  c4668
  c4669
  c4670
  c4674
  c4676
  c4677
  c4678
  c4679
  c468
  c4680
  c4681
  c4682
  c4683
  c4684
  c4685
  c4686
  c469
  c4690
  c4691
  c4692
  c4693
  c4694
  c4695
  c4696
  c4697
  c4698
  c4699
  c4700
  c4701
  c4702
  c4703
  c4704
  c4705
  c471
  c4716
  c4717
  c472
  c4726
  c4727
  c4730
  c4731
  c4734
  c4735
  c4738
  c4739
  c474
  c4742
  c4743
  c4746
  c4747
  c475
  c4754
  c4767
  c4768
  c477
  c4776
  c4777
  c478
  c4782
  c4783
  c4784
  c4785
  c4786
  c4787
  c4789
  c4790
  c4791
  c4792
  c4793
  c4794
  c4795
  c4797
  c4798
  c480
  c4803
  c4804
  c4805
  c4806
  c4807
  c4808
  c4809
  c481
  c4810
  c4811
  c4812
  c4813
  c4814
  c4815
  c4816
  c4817
  c4818
  c4819
  c4820
  c4821
  c4822
  c4823
  c4824
  c4825
  c4826
  c4827
  c4828
  c4829
  c483
  c4830
  c4831
  c4833
  c4834
  c4835
  c4836
  c4837
  c4838
  c4857
  c4858
  c486
  c4862
  c4863
  c4866
  c4868
  c487
  c4870
  c4871
  c4873
  c4875
  c4876
  c4877
  c4878
  c4882
  c4886
  c4890
  c4891
  c4892
  c4893
  c4894
  c4895
  c49
  c494
  c495
  c496
  c498
  c499
  c5
  c501
  c502
  c504
  c505
  c508
  c509
  c511
  c512
  c514
  c515
  c517
  c518
  c52
  c522
  c523
  c525
  c526
  c528
  c529
  c531
  c532
  c534
  c535
  c540
  c541
  c543
  c544
  c546
  c547
  c549
  c55
  c550
  c552
  c553
  c555
  c556
  c562
  c563
  c565
  c566
  c568
  c569
  c57
  c571
  c572
  c574
  c575
  c577
  c578
  c58
  c60
  c61
  c611
  c612
  c613
  c614
  c615
  c617
  c618
  c619
  c62
  c620
  c621
  c622
  c628
  c63
  c630
  c631
  c634
  c635
  c638
  c639
  c64
  c642
  c643
  c646
  c647
  c65
  c650
  c651
  c654
  c655
  c656
  c659
  c66
  c660
  c661
  c664
  c665
  c666
  c669
  c67
  c670
  c671
  c674
  c675
  c676
  c679
  c68
  c680
  c681
  c684
  c685
  c686
  c687
  c69
  c692
  c694
  c695
  c70
  c700
  c701
  c702
  c703
  c708
  c71
  c710
  c711
  c716
  c718
  c719
  c72
  c726
  c729
  c73
  c730
  c732
  c734
  c736
  c738
  c739
  c74
  c749
  c75
  c76
  c769
  c77
  c770
  c771
  c772
  c773
  c774
  c776
  c777
  c778
  c779
  c78
  c780
  c781
  c788
  c789
  c79
  c790
  c791
  c792
  c793
  c795
  c796
  c799
  c800
  c803
  c804
  c807
  c808
  c81
  c811
  c812
  c815
  c816
  c819
  c820
  c827
  c828
  c831
  c835
  c836
  c839
  c840
  c843
  c844
  c847
  c848
  c85
  c851
  c852
  c859
  c860
  c863
  c864
  c867
  c871
  c872
  c875
  c876
  c879
  c880
  c883
  c884
  c891
  c892
  c895
  c896
  c899
  c90
  c900
  c903
  c907
  c908
  c911
  c912
  c915
  c916
  c92
  c923
  c924
  c927
  c928
  c931
  c932
  c935
  c936
  c939
  c943
  c944
  c947
  c948
  c955
  c956
  c959
  c960
  c963
  c964
  c967
  c968
  c971
  c972
  c975
  c977
  c979
  c980
  c988
  c989
  c991
  c992
  c993
  c996
  c997
  c998 )
